<?xml version = "1.0" encoding="UTF-8" standalone="yes"?>
<CPLEXSolution version="1.2">
 <header
   problemName="IloCplex"
   solutionName="incumbent"
   solutionIndex="-1"
   objectiveValue="31"
   solutionTypeValue="3"
   solutionTypeString="primal"
   solutionStatusValue="101"
   solutionStatusString="integer optimal solution"
   solutionMethodString="mip"
   primalFeasible="1"
   dualFeasible="1"
   MIPNodes="0"
   MIPIterations="34"
   writeLevel="1"/>
 <quality
   epInt="1.0000000000000001e-05"
   epRHS="9.9999999999999995e-07"
   maxIntInfeas="0"
   maxPrimalInfeas="0"
   maxX="31"
   maxSlack="28"/>
 <linearConstraints>
  <constraint index="0" slack="22"/>
  <constraint index="1" slack="6"/>
  <constraint index="2" slack="23"/>
  <constraint index="3" slack="6"/>
  <constraint index="4" slack="20"/>
  <constraint index="5" slack="1"/>
  <constraint index="6" slack="21"/>
  <constraint index="7" slack="9"/>
  <constraint index="8" slack="19"/>
  <constraint index="9" slack="0"/>
  <constraint index="10" slack="24"/>
  <constraint index="11" slack="20"/>
  <constraint index="12" slack="23"/>
  <constraint index="13" slack="25"/>
  <constraint index="14" slack="0"/>
  <constraint index="15" slack="0"/>
  <constraint index="16" slack="1"/>
  <constraint index="17" slack="0"/>
  <constraint index="18" slack="-22"/>
  <constraint index="19" slack="-20"/>
  <constraint index="20" slack="0"/>
  <constraint index="21" slack="0"/>
  <constraint index="22" slack="-23"/>
  <constraint index="23" slack="-28"/>
  <constraint index="24" slack="2"/>
  <constraint index="25" slack="5"/>
  <constraint index="26" slack="-21"/>
  <constraint index="27" slack="-19"/>
  <constraint index="28" slack="22"/>
  <constraint index="29" slack="25"/>
  <constraint index="30" slack="-1"/>
  <constraint index="31" slack="-14"/>
  <constraint index="32" slack="2"/>
  <constraint index="33" slack="0"/>
  <constraint index="34" slack="-21"/>
  <constraint index="35" slack="-20"/>
  <constraint index="36" slack="1"/>
  <constraint index="37" slack="0"/>
  <constraint index="38" slack="-22"/>
  <constraint index="39" slack="-28"/>
  <constraint index="40" slack="3"/>
  <constraint index="41" slack="5"/>
  <constraint index="42" slack="-20"/>
  <constraint index="43" slack="-19"/>
  <constraint index="44" slack="23"/>
  <constraint index="45" slack="25"/>
  <constraint index="46" slack="0"/>
  <constraint index="47" slack="-14"/>
  <constraint index="48" slack="23"/>
  <constraint index="49" slack="20"/>
  <constraint index="50" slack="0"/>
  <constraint index="51" slack="-3"/>
  <constraint index="52" slack="0"/>
  <constraint index="53" slack="0"/>
  <constraint index="54" slack="-23"/>
  <constraint index="55" slack="-19"/>
  <constraint index="56" slack="20"/>
  <constraint index="57" slack="20"/>
  <constraint index="58" slack="-3"/>
  <constraint index="59" slack="-14"/>
  <constraint index="60" slack="1"/>
  <constraint index="61" slack="8"/>
  <constraint index="62" slack="-22"/>
  <constraint index="63" slack="-19"/>
  <constraint index="64" slack="21"/>
  <constraint index="65" slack="28"/>
  <constraint index="66" slack="-2"/>
  <constraint index="67" slack="-14"/>
  <constraint index="68" slack="19"/>
  <constraint index="69" slack="19"/>
  <constraint index="70" slack="-4"/>
  <constraint index="71" slack="-19"/>
 </linearConstraints>
 <variables>
  <variable name="x1" index="0" value="2"/>
  <variable name="r1" index="1" value="-0"/>
  <variable name="y1" index="2" value="0"/>
  <variable name="y" index="3" value="31"/>
  <variable name="x2" index="4" value="1"/>
  <variable name="r2" index="5" value="-0"/>
  <variable name="y2" index="6" value="0"/>
  <variable name="x3" index="7" value="4"/>
  <variable name="r3" index="8" value="0"/>
  <variable name="y3" index="9" value="0"/>
  <variable name="x4" index="10" value="3"/>
  <variable name="r4" index="11" value="-0"/>
  <variable name="y4" index="12" value="0"/>
  <variable name="x5" index="13" value="5"/>
  <variable name="r5" index="14" value="0"/>
  <variable name="y5" index="15" value="5"/>
  <variable name="x6" index="16" value="0"/>
  <variable name="r6" index="17" value="-0"/>
  <variable name="y6" index="18" value="0"/>
  <variable name="p12" index="19" value="1"/>
  <variable name="q12" index="20" value="-0"/>
  <variable name="p13" index="21" value="-0"/>
  <variable name="q13" index="22" value="-0"/>
  <variable name="p14" index="23" value="-0"/>
  <variable name="q14" index="24" value="-0"/>
  <variable name="p15" index="25" value="-0"/>
  <variable name="q15" index="26" value="-0"/>
  <variable name="p16" index="27" value="1"/>
  <variable name="q16" index="28" value="-0"/>
  <variable name="p23" index="29" value="-0"/>
  <variable name="q23" index="30" value="-0"/>
  <variable name="p24" index="31" value="-0"/>
  <variable name="q24" index="32" value="-0"/>
  <variable name="p25" index="33" value="-0"/>
  <variable name="q25" index="34" value="-0"/>
  <variable name="p26" index="35" value="1"/>
  <variable name="q26" index="36" value="-0"/>
  <variable name="p34" index="37" value="1"/>
  <variable name="q34" index="38" value="-0"/>
  <variable name="p35" index="39" value="0"/>
  <variable name="q35" index="40" value="-0"/>
  <variable name="p36" index="41" value="1"/>
  <variable name="q36" index="42" value="-0"/>
  <variable name="p45" index="43" value="0"/>
  <variable name="q45" index="44" value="-0"/>
  <variable name="p46" index="45" value="1"/>
  <variable name="q46" index="46" value="-0"/>
  <variable name="p56" index="47" value="1"/>
  <variable name="q56" index="48" value="-0"/>
 </variables>
</CPLEXSolution>
